Set parameter TSPort to value 51199
Set parameter TokenServer to value "open-license1.lanl.gov"
Set parameter TimeLimit to value 8192
Set parameter Threads to value 1
Gurobi Optimizer version 10.0.3 build v10.0.3rc0 (linux64)

CPU model: Intel(R) Xeon(R) CPU E5-2695 v4 @ 2.10GHz, instruction set [SSE2|AVX|AVX2]
Thread count: 36 physical cores, 72 logical processors, using up to 1 threads

Optimize a model with 0 rows, 2897 columns and 0 nonzeros
Model fingerprint: 0x4ba92505
Model has 13399 quadratic objective terms
Variable types: 0 continuous, 2897 integer (2897 binary)
Coefficient statistics:
  Matrix range     [0e+00, 0e+00]
  Objective range  [2e+00, 3e+01]
  QObjective range [8e+00, 8e+00]
  Bounds range     [1e+00, 1e+00]
  RHS range        [0e+00, 0e+00]
Found heuristic solution: objective 0.0000000
Found heuristic solution: objective -4890.000000
Found heuristic solution: objective -17908.00000
Found heuristic solution: objective -17980.00000
Presolve removed 0 rows and 1 columns
Presolve time: 0.40s
Presolved: 13398 rows, 16294 columns, 40194 nonzeros
Variable types: 0 continuous, 16294 integer (16294 binary)

Root relaxation: objective -2.516500e+04, 3992 iterations, 0.06 seconds (0.03 work units)

    Nodes    |    Current Node    |     Objective Bounds      |     Work
 Expl Unexpl |  Obj  Depth IntInf | Incumbent    BestBd   Gap | It/Node Time

     0     0 -25165.000    0 2896 -17980.000 -25165.000  40.0%     -    0s
     0     0 -23628.000    0 3654 -17980.000 -23628.000  31.4%     -    1s
     0     0 -23325.000    0 3816 -17980.000 -23325.000  29.7%     -    1s
     0     0 -23316.000    0 3824 -17980.000 -23316.000  29.7%     -    1s
     0     0 -23068.500    0 3998 -17980.000 -23068.500  28.3%     -    2s
     0     0 -23068.500    0 3956 -17980.000 -23068.500  28.3%     -    2s
     0     2 -23068.500    0 3955 -17980.000 -23068.500  28.3%     -    3s
    54    56 -22793.500   27 4217 -17980.000 -23056.500  28.2%   146    5s
   314   316 -21685.000  157 4953 -17980.000 -23056.500  28.2%  95.4   10s
   567   569 -20722.000  284 5337 -17980.000 -23056.500  28.2%  84.3   15s
   810   812 -19840.000  405 5558 -17980.000 -23056.500  28.2%  78.5   20s
   910   912 -19518.000  455 5595 -17980.000 -23056.500  28.2%  76.6   25s
H  988   988                    -17982.00000 -23056.500  28.2%  74.6   26s
H 1049  1049                    -17994.00000 -23056.500  28.1%  73.0   28s
  1134  1136 -19000.000  568 5628 -17994.000 -23056.500  28.1%  70.7   30s
H 1326  1326                    -18000.00000 -23056.500  28.1%  67.3   32s
H 1352  1352                    -18004.00000 -23056.500  28.1%  66.8   33s
H 1378  1378                    -18006.00000 -23056.500  28.0%  66.3   33s
H 1404  1404                    -18012.00000 -23056.500  28.0%  65.7   34s
H 1456  1456                    -18016.00000 -23056.500  28.0%  64.9   34s
  1469  1471 -18246.300  738 5189 -18016.000 -23056.500  28.0%  64.7   35s
H 1482  1482                    -18024.00000 -23056.500  27.9%  64.3   35s
H 1508  1508                    -18028.00000 -23056.500  27.9%  63.7   35s
H 1560  1560                    -18032.00000 -23056.500  27.9%  62.5   36s
H 1586  1586                    -18038.00000 -23056.500  27.8%  62.0   36s
H 1612  1588                    -18052.00000 -23056.500  27.7%  61.4   37s
H 1623  1504                    -18056.00000 -23054.500  27.7%  61.1   40s
  1628  1507 -19294.000  498 4900 -18056.000 -21856.583  21.0%  60.9   46s
  1635  1512 -18898.000  589 5593 -18056.000 -21438.580  18.7%  60.6   60s
  1636  1512 -21300.171   20 6084 -18056.000 -21300.171  18.0%  60.6   83s
  1637  1513 -18339.800  713 6234 -18056.000 -21269.873  17.8%  60.5   95s
  1638  1514 -19178.000  522 6327 -18056.000 -21259.672  17.7%  60.5  103s
  1639  1514 -19207.000  516 6381 -18056.000 -21256.419  17.7%  60.5  106s
  1642  1516 -19646.000  434 6507 -18056.000 -21253.997  17.7%  60.4  110s
  1648  1520 -20963.051  197 6980 -18056.000 -20963.051  16.1%  60.1  179s
  1649  1521 -19950.000  390 7360 -18056.000 -20875.089  15.6%  60.1  242s
  1650  1522 -20848.213  132 7737 -18056.000 -20848.213  15.5%  60.1  281s
  1651  1522 -18767.000  610 7914 -18056.000 -20841.746  15.4%  60.0  291s
  1652  1523 -20837.638  135 8004 -18056.000 -20837.638  15.4%  60.0  299s
  1653  1524 -18701.000  621 8082 -18056.000 -20835.965  15.4%  60.0  304s
  1654  1524 -20564.000  307 8100 -18056.000 -20835.426  15.4%  59.9  308s
  1655  1525 -18842.000  600 8118 -18056.000 -20835.073  15.4%  59.9  310s
  1660  1528 -19575.000  446 8513 -18056.000 -20592.866  14.0%  59.7  439s
  1661  1529 -19608.000  440 9020 -18056.000 -20523.803  13.7%  59.7  545s
  1662  1530 -18852.000  598 9332 -18056.000 -20500.348  13.5%  59.6  593s
  1663  1530 -20434.000  323 9555 -18056.000 -20493.554  13.5%  59.6  620s
  1664  1531 -18199.550  749 9651 -18056.000 -20490.114  13.5%  59.6  635s
  1665  1532 -20357.000  334 9684 -18056.000 -20488.650  13.5%  59.5  644s
  1666  1532 -19549.000  451 9781 -18056.000 -20488.140  13.5%  59.5  649s
  1667  1533 -19068.000  547 9813 -18056.000 -20487.908  13.5%  59.5  653s
  1668  1534 -19845.000  405 9791 -18056.000 -20487.795  13.5%  59.4  655s
  1671  1536 -20487.730  207 9873 -18056.000 -20487.730  13.5%  59.3  660s
  1672  1536 -18607.500  646 10109 -18056.000 -20323.370  12.6%  59.3  845s
  1673  1537 -18891.000  590 10590 -18056.000 -20268.895  12.3%  59.2  984s
  1674  1538 -20254.817   64 10964 -18056.000 -20254.817  12.2%  59.2 1047s
  1675  1538 -20250.660  162 11151 -18056.000 -20250.660  12.2%  59.2 1079s
  1676  1539 -20249.082  238 11269 -18056.000 -20249.082  12.1%  59.1 1094s
  1677  1540 -20248.509   21 11394 -18056.000 -20248.509  12.1%  59.1 1102s
  1678  1540 -20248.150  193 11307 -18056.000 -20248.150  12.1%  59.1 1107s
  1679  1541 -19631.000  436 11408 -18056.000 -20248.031  12.1%  59.0 1110s
  1683  1544 -20058.000  374 11446 -18056.000 -20247.956  12.1%  58.9 1118s
  1684  1544 -20097.460    3 11989 -18056.000 -20097.460  11.3%  58.9 1368s
  1685  1545 -18501.500  672 12427 -18056.000 -20064.554  11.1%  58.8 1526s
  1686  1546 -19064.000  548 12686 -18056.000 -20055.647  11.1%  58.8 1614s
  1687  1546 -20053.507   78 12809 -18056.000 -20053.507  11.1%  58.8 1644s
  1688  1547 -18634.500  640 12853 -18056.000 -20052.668  11.1%  58.7 1664s
  1689  1548 -19119.000  537 12868 -18056.000 -20052.437  11.1%  58.7 1671s
  1690  1548 -20052.221  101 12935 -18056.000 -20052.221  11.1%  58.6 1679s
  1691  1549 -18056.000  799 12945 -18056.000 -20052.114  11.1%  58.6 1683s
  1692  1550 -20052.072  345 12958 -18056.000 -20052.072  11.1%  58.6 1687s
  1694  1551 -20052.043  193 12954 -18056.000 -20052.043  11.1%  58.5 1690s
H 1695  1473                    -18062.00000 -19984.695  10.6%  58.5 1904s
  1697  1474 -19973.288  174 13185 -18062.000 -19973.288  10.6%  58.4 2001s
  1698  1475 -18677.000  628 13285 -18062.000 -19971.178  10.6%  58.4 2033s
  1699  1475 -19177.000  523 13235 -18062.000 -19970.500  10.6%  58.3 2047s
  1700  1476 -18767.000  610 13312 -18062.000 -19970.264  10.6%  58.3 2058s
  1701  1477 -19024.000  565 13360 -18062.000 -19970.201  10.6%  58.3 2063s
  1702  1477 -19818.000  409 13355 -18062.000 -19970.167  10.6%  58.2 2066s
  1704  1479 -18729.000  616 13380 -18062.000 -19970.151  10.6%  58.2 2072s
  1705  1479 -19918.280  211 13244 -18062.000 -19918.280  10.3%  58.1 2291s
  1706  1480 -19906.670  245 13417 -18062.000 -19906.670  10.2%  58.1 2421s
  1707  1481 -18171.000  762 13491 -18062.000 -19904.589  10.2%  58.1 2467s
  1708  1481 -19873.000  401 13510 -18062.000 -19904.093  10.2%  58.0 2482s
  1709  1482 -19903.857  312 13549 -18062.000 -19903.857  10.2%  58.0 2491s
  1710  1483 -19903.662   85 13586 -18062.000 -19903.662  10.2%  58.0 2502s
  1711  1483 -19903.619  236 13600 -18062.000 -19903.619  10.2%  57.9 2505s
  1714  1485 -19903.600  282 13625 -18062.000 -19903.600  10.2%  57.8 2512s
H 1714  1410                    -18066.00000 -19867.555  10.0%  57.8 2730s
  1716  1412 -18159.083  766 13673 -18066.000 -19858.812  9.92%  57.8 2850s
  1717  1412 -18455.500  685 13714 -18066.000 -19857.287  9.92%  57.7 2883s
  1718  1413 -19486.000  462 13725 -18066.000 -19856.836  9.91%  57.7 2903s
  1719  1414 -18518.500  668 13761 -18066.000 -19856.677  9.91%  57.7 2910s
  1721  1415 -19486.000  462 13765 -18066.000 -19856.634  9.91%  57.6 2917s
  1722  1416 -19856.630  148 13771 -18066.000 -19856.630  9.91%  57.6 2921s
  1723  1416 -19826.244  330 13667 -18066.000 -19826.244  9.74%  57.5 3121s
  1724  1417 -19051.000  559 13829 -18066.000 -19819.635  9.71%  57.5 3216s
  1725  1418 -19818.276  314 13879 -18066.000 -19818.276  9.70%  57.5 3247s
  1726  1418 -19029.000  564 13923 -18066.000 -19817.777  9.70%  57.4 3267s
  1727  1419 -19144.000  532 13941 -18066.000 -19817.681  9.70%  57.4 3272s
  1728  1420 -19294.000  498 13962 -18066.000 -19817.633  9.70%  57.4 3278s
  1730  1421 -18799.000  605 13986 -18066.000 -19817.616  9.70%  57.3 3281s
  1732  1422 -19789.167  187 13883 -18066.000 -19789.167  9.54%  57.2 3497s
  1733  1423 -19207.000  516 13947 -18066.000 -19783.528  9.51%  57.2 3600s
  1734  1424 -19506.000  459 13972 -18066.000 -19782.598  9.50%  57.2 3634s
  1735  1424 -18898.000  589 14015 -18066.000 -19782.346  9.50%  57.1 3645s
  1736  1425 -19782.259   20 14046 -18066.000 -19782.259  9.50%  57.1 3651s
  1738  1426 -19178.000  522 14073 -18066.000 -19782.175  9.50%  57.0 3659s
  1739  1427 -19207.000  516 14090 -18066.000 -19782.162  9.50%  57.0 3661s
  1741  1428 -19758.401  255 13958 -18066.000 -19758.401  9.37%  56.9 3862s
  1742  1429 -19646.000  434 14052 -18066.000 -19753.094  9.34%  56.9 3967s
  1743  1430 -19752.308  400 14104 -18066.000 -19752.308  9.33%  56.9 3991s
  1744  1430 -18417.500  695 14140 -18066.000 -19752.092  9.33%  56.8 4002s
  1745  1431 -19751.958  341 14137 -18066.000 -19751.958  9.33%  56.8 4011s
  1746  1432 -19751.889  243 14147 -18066.000 -19751.889  9.33%  56.8 4017s
  1747  1432 -19492.000  461 14170 -18066.000 -19751.869  9.33%  56.7 4020s
  1750  1434 -19732.803  132 13966 -18066.000 -19732.803  9.23%  56.6 4199s
  1751  1435 -18767.000  610 14062 -18066.000 -19728.409  9.20%  56.6 4291s
  1752  1436 -19727.583  135 14131 -18066.000 -19727.583  9.20%  56.6 4317s
  1753  1436 -18701.000  621 14197 -18066.000 -19727.378  9.20%  56.5 4328s
  1754  1437 -19727.310  307 14198 -18066.000 -19727.310  9.20%  56.5 4333s
  1755  1438 -18842.000  600 14212 -18066.000 -19727.288  9.20%  56.5 4336s
  1757  1439 -18938.000  580 14237 -18066.000 -19727.276  9.20%  56.4 4340s
  1758  1440 -19711.754  219 14102 -18066.000 -19711.754  9.11%  56.4 4514s
  1759  1440 -19227.000  512 14186 -18066.000 -19707.929  9.09%  56.3 4605s
  1760  1441 -19575.000  446 14210 -18066.000 -19707.264  9.08%  56.3 4634s
  1761  1442 -19608.000  440 14265 -18066.000 -19707.109  9.08%  56.3 4643s
  1762  1442 -18852.000  598 14262 -18066.000 -19707.034  9.08%  56.3 4650s
  1764  1444 -18199.550  749 14297 -18066.000 -19707.009  9.08%  56.2 4655s
  1766  1445 -19549.000  451 14191 -18066.000 -19693.495  9.01%  56.1 4823s
  1767  1446 -19068.000  547 14290 -18066.000 -19690.716  8.99%  56.1 4892s
  1768  1446 -19690.015  405 14310 -18066.000 -19690.015  8.99%  56.1 4917s
  1769  1447 -19689.836  297 14330 -18066.000 -19689.836  8.99%  56.0 4931s
  1770  1448 -19029.000  564 14344 -18066.000 -19689.771  8.99%  56.0 4936s
  1771  1448 -19689.746  207 14359 -18066.000 -19689.746  8.99%  56.0 4940s
  1774  1450 -19676.678   64 14230 -18066.000 -19676.678  8.92%  55.9 5112s
  1775  1451 -19673.464  162 14324 -18066.000 -19673.464  8.90%  55.8 5195s
  1776  1452 -19672.807  238 14367 -18066.000 -19672.807  8.89%  55.8 5219s
  1777  1452 -19672.654   21 14407 -18066.000 -19672.654  8.89%  55.8 5229s
  1778  1453 -19672.590  193 14403 -18066.000 -19672.590  8.89%  55.7 5235s
  1780  1454 -19084.000  544 14427 -18066.000 -19672.561  8.89%  55.7 5241s
  1782  1456 -19534.000  453 14287 -18066.000 -19660.159  8.82%  55.6 5413s
  1783  1456 -19657.461  374 14371 -18066.000 -19657.461  8.81%  55.6 5485s
  1784  1457 -19656.947    3 14420 -18066.000 -19656.947  8.81%  55.6 5506s
  1785  1458 -18501.500  672 14428 -18066.000 -19656.764  8.81%  55.5 5521s
  1786  1458 -19064.000  548 14443 -18066.000 -19656.726  8.81%  55.5 5526s
  1787  1459 -19656.691   78 14453 -18066.000 -19656.691  8.80%  55.5 5530s
  1789  1460 -19119.000  537 14466 -18066.000 -19656.674  8.80%  55.4 5535s
  1790  1461 -19646.962  101 14321 -18066.000 -19646.962  8.75%  55.4 5686s
  1791  1462 -18066.000  799 14433 -18066.000 -19644.162  8.74%  55.3 5759s
  1792  1462 -19643.639  345 14478 -18066.000 -19643.639  8.73%  55.3 5787s
  1793  1463 -19643.481  171 14526 -18066.000 -19643.481  8.73%  55.3 5797s
  1794  1464 -19643.428  193 14548 -18066.000 -19643.428  8.73%  55.2 5803s
  1795  1464 -19643.413  239 14542 -18066.000 -19643.413  8.73%  55.2 5806s
  1797  1466 -19635.149  174 14381 -18066.000 -19635.149  8.69%  55.2 5943s
  1798  1466 -18677.000  628 14468 -18066.000 -19632.746  8.67%  55.1 6021s
  1799  1467 -19177.000  523 14487 -18066.000 -19632.250  8.67%  55.1 6049s
  1800  1468 -18767.000  610 14542 -18066.000 -19632.111  8.67%  55.1 6058s
  1801  1468 -19024.000  565 14553 -18066.000 -19632.060  8.67%  55.0 6066s
  1803  1470 -19632.036   67 14580 -18066.000 -19632.036  8.67%  55.0 6071s
  1805  1471 -19631.742  211 14550 -18066.000 -19631.742  8.67%  54.9 6085s
  1807  1472 -18171.000  762 14570 -18066.000 -19631.710  8.67%  54.8 6091s
  1808  1473 -19631.532  401 14560 -18066.000 -19631.532  8.67%  54.8 6100s
  1809  1474 -19631.460  312 14563 -18066.000 -19631.460  8.67%  54.8 6108s
  1810  1474 -19631.428   85 14582 -18066.000 -19631.428  8.67%  54.8 6113s
  1811  1475 -19631.425  236 14581 -18066.000 -19631.425  8.67%  54.7 6115s
  1812  1476 -19113.000  538 14567 -18066.000 -19631.341  8.66%  54.7 6120s
  1814  1477 -19631.299  282 14597 -18066.000 -19631.299  8.66%  54.6 6125s
  1816  1478 -18159.083  766 14585 -18066.000 -19631.056  8.66%  54.6 6140s
  1817  1479 -18455.500  685 14578 -18066.000 -19630.960  8.66%  54.5 6148s
  1818  1480 -19486.000  462 14592 -18066.000 -19630.947  8.66%  54.5 6150s
  1821  1482 -19486.000  462 14584 -18066.000 -19630.783  8.66%  54.4 6160s
  1823  1483 -19630.741  330 14610 -18066.000 -19630.741  8.66%  54.4 6165s
  1834  1491 -19506.000  459 2895 -18066.000 -19630.740  8.66%  1754 6171s
  1837  1493 -18339.800  713 5094 -18066.000 -19630.740  8.66%  1751 6179s
  1838  1494 -19178.000  522 6408 -18066.000 -19630.740  8.66%  1750 6202s
  1839  1495 -19207.000  516 8095 -18066.000 -19630.740  8.66%  1749 6284s
  1840  1495 -18291.800  724 9904 -18066.000 -19630.740  8.66%  1748 6454s
  1841  1496 -19630.740  255 11147 -18066.000 -19630.740  8.66%  1747 6644s
  1842  1497 -19630.740  434 12711 -18066.000 -19630.740  8.66%  1747 6938s
  1843  1497 -19630.740  400 13714 -18066.000 -19630.740  8.66%  1746 7257s
  1844  1498 -18417.500  695 14161 -18066.000 -19630.740  8.66%  1745 7555s
  1845  1499 -19630.740  341 14314 -18066.000 -19630.740  8.66%  1744 7711s
  1846  1499 -19630.740  243 14425 -18066.000 -19630.740  8.66%  1743 7792s
  1847  1500 -19492.000  461 14480 -18066.000 -19630.740  8.66%  1742 7834s
  1848  1501 -19630.740  197 14507 -18066.000 -19630.740  8.66%  1741 7847s
  1849  1501 -19630.740  390 14547 -18066.000 -19630.740  8.66%  1740 7854s
  1850  1502 -19630.740  132 14556 -18066.000 -19630.740  8.66%  1739 7858s
  1851  1503 -18767.000  610 14566 -18066.000 -19630.740  8.66%  1738 7861s
  1852  1503 -19630.740  135 14581 -18066.000 -19630.740  8.66%  1737 7866s
  1853  1504 -18701.000  621 14477 -18066.000 -19611.560  8.56%  1736 8105s
  1854  1505 -19609.577  307 14465 -18066.000 -19609.577  8.54%  1735 8164s
  1855  1505 -18842.000  600 14506 -18066.000 -19609.158  8.54%  1734 8188s

Cutting planes:
  Gomory: 90
  MIR: 549
  Flow cover: 5243
  Zero half: 1733
  Mod-K: 100
  RLT: 540
  BQP: 867

Explored 1855 nodes (4329910 simplex iterations) in 8192.03 seconds (12551.55 work units)
Thread count was 1 (of 72 available processors)

Solution count 10: -18066 -18062 -18056 ... -18012

Time limit reached
Best objective -1.806600000000e+04, best bound -1.960800000000e+04, gap 8.5354%

User-callback calls 21687, time in user-callback 0.10 sec

BQP_SOLUTION, 2897, 13399, -6300.000000, 8192.026200, -1, -1, 1, -1, 1, -1, -1, 1, 1, 1, 1, -1, -1, 1, -1, 1, 1, -1, -1, 1, -1, -1, -1, -1, 1, -1, 1, -1, 1, -1, 1, -1, 1, -1, -1, 1, -1, 1, 1, -1, -1, 1, 1, -1, -1, -1, 1, -1, -1, 1, -1, 1, 1, 1, -1, -1, -1, -1, 1, 1, -1, 1, -1, 1, -1, -1, -1, -1, 1, -1, -1, 1, -1, 1, -1, 1, -1, -1, -1, -1, -1, -1, 1, -1, -1, 1, 1, -1, -1, -1, 1, -1, -1, 1, -1, 1, -1, 1, 1, 1, -1, -1, -1, 1, 1, 1, -1, -1, 1, -1, 1, -1, -1, -1, -1, 1, -1, -1, -1, 1, 1, -1, -1, 1, -1, -1, 1, -1, -1, -1, 1, 1, -1, -1, -1, 1, -1, -1, 1, -1, 1, 1, -1, -1, 1, -1, -1, 1, 1, 1, -1, 1, 1, -1, -1, -1, 1, 1, -1, -1, 1, -1, -1, -1, 1, 1, -1, 1, -1, 1, -1, -1, -1, -1, 1, 1, -1, -1, 1, -1, -1, -1, 1, -1, -1, -1, 1, -1, -1, -1, -1, -1, 1, -1, -1, -1, 1, -1, -1, -1, -1, 1, -1, -1, -1, -1, -1, -1, 1, 1, -1, 1, 1, -1, -1, 1, -1, -1, -1, 1, 1, -1, 1, 1, -1, -1, -1, 1, -1, -1, -1, -1, -1, -1, 1, -1, -1, -1, 1, -1, -1, -1, 1, -1, 1, 1, -1, -1, -1, -1, -1, -1, 1, -1, -1, -1, 1, -1, -1, -1, -1, -1, -1, -1, 1, -1, 1, 1, -1, -1, 1, -1, -1, -1, 1, -1, -1, -1, 1, -1, -1, -1, -1, 1, -1, -1, 1, -1, -1, -1, -1, -1, -1, -1, 1, -1, -1, -1, -1, -1, -1, 1, -1, -1, -1, -1, 1, -1, 1, -1, 1, -1, 1, -1, -1, -1, -1, 1, -1, 1, 1, -1, 1, -1, -1, -1, -1, 1, 1, -1, 1, -1, -1, 1, -1, -1, -1, -1, 1, 1, -1, 1, -1, 1, -1, -1, -1, -1, 1, -1, 1, -1, 1, -1, -1, -1, -1, -1, -1, -1, 1, -1, -1, -1, 1, -1, -1, -1, -1, -1, -1, -1, 1, 1, -1, -1, -1, -1, -1, -1, -1, -1, 1, 1, -1, 1, 1, -1, -1, -1, -1, -1, -1, 1, 1, 1, -1, -1, -1, -1, -1, -1, -1, 1, 1, 1, 1, 1, -1, -1, -1, -1, -1, -1, 1, 1, -1, 1, -1, 1, -1, -1, 1, 1, -1, 1, 1, 1, 1, -1, 1, 1, -1, -1, 1, -1, 1, 1, -1, 1, 1, 1, 1, -1, -1, -1, -1, -1, 1, 1, -1, -1, 1, 1, 1, -1, 1, -1, -1, 1, 1, 1, -1, 1, 1, -1, -1, 1, -1, -1, 1, 1, 1, -1, 1, -1, -1, 1, 1, -1, -1, 1, 1, 1, 1, -1, 1, -1, -1, -1, -1, -1, 1, 1, 1, -1, 1, 1, 1, 1, -1, 1, -1, 1, 1, 1, -1, -1, 1, 1, 1, 1, 1, 1, -1, 1, 1, -1, 1, -1, -1, 1, 1, 1, -1, -1, 1, -1, 1, -1, 1, 1, 1, 1, -1, -1, 1, 1, 1, -1, 1, -1, 1, 1, -1, -1, -1, 1, 1, -1, 1, -1, 1, -1, 1, 1, -1, -1, -1, 1, -1, 1, -1, -1, 1, -1, 1, -1, -1, -1, 1, 1, -1, -1, -1, 1, -1, 1, -1, -1, -1, -1, -1, 1, -1, -1, -1, -1, 1, -1, 1, -1, 1, -1, -1, -1, -1, 1, -1, 1, -1, 1, -1, 1, 1, -1, 1, -1, -1, 1, -1, 1, -1, -1, 1, -1, -1, 1, -1, -1, -1, 1, -1, 1, -1, -1, -1, -1, -1, -1, -1, -1, 1, -1, 1, -1, 1, -1, -1, 1, -1, -1, -1, 1, 1, 1, -1, 1, 1, -1, -1, -1, -1, -1, 1, -1, 1, -1, 1, -1, -1, -1, -1, -1, 1, 1, 1, 1, 1, 1, -1, 1, -1, -1, -1, 1, -1, 1, -1, 1, 1, -1, -1, -1, -1, -1, 1, 1, 1, -1, 1, 1, 1, -1, -1, -1, -1, 1, -1, 1, -1, 1, 1, 1, -1, 1, -1, 1, -1, 1, 1, 1, 1, 1, -1, -1, -1, 1, -1, 1, 1, 1, 1, 1, -1, -1, 1, -1, -1, 1, -1, 1, 1, 1, 1, 1, 1, -1, -1, -1, 1, 1, -1, 1, 1, 1, 1, 1, -1, -1, -1, 1, -1, 1, -1, 1, 1, 1, 1, 1, -1, -1, 1, -1, -1, 1, 1, 1, 1, 1, 1, 1, -1, -1, 1, -1, 1, 1, 1, -1, -1, 1, -1, -1, 1, 1, -1, 1, 1, 1, -1, 1, 1, -1, -1, 1, -1, 1, 1, 1, -1, 1, -1, 1, -1, -1, -1, -1, 1, 1, -1, 1, -1, 1, 1, 1, -1, 1, 1, -1, 1, 1, -1, 1, -1, 1, -1, -1, 1, 1, 1, 1, 1, -1, 1, -1, 1, -1, -1, 1, -1, 1, 1, 1, -1, -1, 1, 1, -1, -1, -1, 1, -1, 1, 1, 1, -1, 1, -1, -1, -1, -1, 1, -1, 1, -1, 1, -1, 1, 1, -1, -1, -1, 1, -1, 1, -1, 1, -1, 1, 1, -1, -1, -1, -1, 1, 1, 1, -1, -1, -1, 1, -1, -1, -1, -1, -1, 1, -1, -1, -1, 1, 1, 1, -1, -1, 1, 1, 1, 1, -1, 1, 1, 1, -1, 1, -1, 1, 1, -1, -1, 1, -1, 1, 1, -1, 1, -1, 1, -1, 1, -1, 1, 1, 1, 1, -1, -1, -1, 1, -1, -1, -1, -1, 1, -1, -1, -1, 1, 1, 1, -1, -1, -1, 1, -1, 1, -1, -1, 1, -1, 1, 1, -1, -1, -1, 1, -1, 1, -1, -1, -1, 1, 1, -1, -1, -1, 1, 1, -1, -1, -1, 1, 1, -1, -1, -1, 1, -1, 1, -1, -1, -1, 1, 1, 1, -1, -1, 1, 1, -1, 1, -1, 1, 1, 1, 1, -1, -1, -1, -1, 1, -1, -1, 1, 1, 1, 1, 1, -1, 1, 1, 1, -1, -1, 1, 1, 1, 1, -1, -1, -1, 1, -1, -1, -1, 1, 1, 1, -1, 1, -1, -1, 1, 1, -1, -1, -1, 1, 1, 1, 1, -1, 1, -1, -1, -1, -1, 1, -1, 1, 1, -1, -1, 1, -1, 1, -1, -1, 1, -1, 1, 1, -1, -1, 1, 1, -1, 1, -1, 1, 1, 1, 1, -1, 1, 1, 1, 1, -1, 1, 1, -1, 1, -1, -1, -1, 1, 1, -1, -1, -1, 1, 1, 1, 1, 1, 1, 1, 1, -1, 1, 1, 1, 1, 1, 1, -1, 1, 1, 1, -1, 1, 1, -1, 1, -1, 1, 1, 1, 1, 1, 1, 1, -1, 1, 1, -1, 1, -1, 1, 1, 1, -1, 1, -1, 1, 1, 1, -1, 1, 1, -1, 1, 1, -1, -1, 1, -1, 1, 1, 1, -1, 1, 1, -1, -1, -1, 1, -1, 1, 1, 1, -1, 1, 1, -1, 1, -1, 1, 1, 1, 1, -1, 1, 1, 1, -1, 1, -1, 1, 1, -1, 1, -1, -1, 1, 1, -1, 1, 1, -1, 1, -1, 1, -1, 1, 1, 1, -1, -1, 1, 1, 1, -1, -1, 1, 1, 1, -1, -1, -1, 1, -1, 1, -1, -1, -1, 1, 1, 1, -1, -1, 1, 1, -1, 1, -1, 1, -1, 1, 1, -1, -1, -1, 1, -1, 1, -1, 1, -1, 1, -1, -1, -1, 1, -1, 1, -1, -1, 1, 1, -1, 1, -1, 1, -1, 1, 1, -1, -1, 1, 1, -1, 1, -1, -1, -1, 1, 1, -1, -1, 1, 1, -1, 1, -1, -1, -1, 1, -1, 1, -1, 1, -1, 1, 1, -1, 1, -1, 1, -1, -1, -1, 1, 1, -1, 1, -1, 1, -1, 1, -1, 1, -1, 1, 1, 1, -1, 1, -1, -1, 1, -1, -1, -1, 1, 1, 1, -1, 1, -1, 1, -1, -1, -1, 1, 1, -1, -1, -1, 1, -1, 1, 1, -1, 1, 1, 1, -1, -1, 1, 1, -1, 1, 1, -1, -1, 1, 1, -1, -1, 1, -1, 1, 1, -1, -1, -1, 1, 1, 1, -1, -1, -1, -1, 1, 1, -1, -1, 1, 1, 1, 1, -1, 1, 1, 1, 1, -1, -1, 1, -1, 1, -1, -1, -1, -1, 1, -1, -1, 1, 1, 1, 1, -1, -1, 1, 1, 1, 1, -1, -1, -1, 1, 1, -1, -1, -1, 1, -1, 1, -1, -1, 1, 1, 1, -1, -1, 1, 1, 1, 1, 1, 1, -1, 1, 1, -1, -1, 1, -1, 1, -1, 1, 1, -1, 1, 1, 1, 1, 1, -1, 1, 1, 1, 1, -1, 1, 1, 1, -1, -1, -1, 1, -1, 1, -1, 1, 1, 1, -1, 1, 1, -1, 1, 1, 1, -1, -1, 1, 1, 1, 1, -1, -1, 1, -1, 1, -1, -1, 1, 1, 1, 1, -1, 1, -1, 1, 1, -1, -1, 1, 1, -1, -1, -1, 1, -1, 1, 1, -1, -1, 1, 1, 1, -1, 1, 1, 1, 1, -1, -1, -1, 1, 1, -1, -1, -1, 1, -1, 1, 1, -1, -1, 1, 1, 1, -1, 1, 1, 1, -1, -1, -1, -1, -1, 1, 1, 1, -1, -1, -1, 1, 1, -1, -1, 1, 1, 1, 1, -1, 1, 1, -1, -1, -1, -1, -1, 1, 1, 1, -1, 1, 1, -1, -1, -1, -1, 1, 1, 1, 1, 1, 1, -1, -1, 1, -1, -1, 1, 1, 1, -1, 1, 1, -1, -1, -1, -1, -1, 1, 1, 1, 1, -1, 1, 1, -1, 1, -1, -1, 1, 1, 1, 1, 1, 1, 1, -1, 1, -1, 1, 1, 1, 1, 1, -1, 1, -1, 1, 1, -1, -1, 1, 1, 1, 1, 1, 1, 1, -1, -1, -1, -1, 1, 1, -1, 1, 1, -1, 1, -1, 1, -1, 1, 1, 1, 1, 1, 1, 1, 1, -1, -1, -1, 1, -1, 1, 1, 1, 1, -1, 1, -1, -1, 1, -1, 1, 1, 1, 1, 1, -1, 1, -1, -1, -1, 1, 1, 1, 1, 1, -1, -1, 1, -1, -1, -1, 1, 1, 1, 1, 1, -1, -1, 1, -1, 1, 1, -1, 1, 1, -1, 1, -1, -1, 1, -1, 1, -1, 1, 1, -1, 1, -1, -1, 1, 1, -1, 1, 1, 1, -1, -1, 1, -1, 1, 1, 1, -1, -1, 1, 1, -1, 1, -1, 1, -1, 1, 1, 1, 1, 1, 1, 1, -1, -1, -1, 1, 1, -1, -1, -1, 1, 1, -1, -1, 1, 1, 1, 1, -1, 1, 1, 1, -1, 1, -1, 1, -1, 1, 1, 1, 1, 1, -1, 1, 1, -1, 1, -1, 1, 1, -1, 1, -1, -1, 1, -1, 1, 1, 1, 1, -1, 1, 1, 1, 1, -1, -1, -1, -1, -1, 1, 1, 1, 1, 1, 1, -1, -1, -1, 1, -1, 1, 1, 1, -1, -1, 1, -1, -1, 1, 1, -1, 1, 1, 1, 1, 1, 1, 1, 1, 1, 1, -1, 1, 1, 1, 1, -1, -1, -1, 1, -1, 1, 1, 1, 1, -1, 1, 1, -1, 1, 1, -1, 1, -1, 1, 1, 1, 1, -1, 1, 1, -1, -1, 1, 1, 1, 1, 1, 1, 1, -1, -1, 1, -1, 1, 1, 1, 1, 1, 1, -1, 1, -1, 1, -1, 1, 1, -1, 1, 1, 1, -1, 1, -1, 1, -1, 1, -1, 1, -1, 1, 1, -1, 1, 1, -1, 1, 1, -1, 1, 1, 1, 1, 1, 1, 1, -1, 1, 1, -1, 1, 1, 1, 1, 1, 1, -1, 1, -1, 1, 1, 1, 1, -1, 1, -1, 1, 1, 1, -1, 1, -1, -1, 1, 1, 1, 1, 1, 1, 1, 1, -1, 1, 1, 1, 1, 1, -1, 1, 1, 1, 1, 1, 1, 1, 1, 1, -1, 1, -1, 1, 1, 1, 1, 1, -1, 1, 1, 1, 1, -1, 1, 1, -1, -1, 1, -1, 1, 1, 1, -1, -1, 1, 1, 1, 1, 1, -1, 1, 1, -1, 1, -1, -1, 1, 1, -1, 1, -1, -1, 1, 1, 1, -1, 1, 1, -1, 1, 1, -1, 1, 1, 1, 1, -1, 1, 1, 1, -1, 1, -1, 1, 1, -1, -1, -1, -1, 1, -1, 1, -1, 1, 1, 1, -1, 1, -1, -1, 1, 1, -1, -1, 1, -1, 1, 1, -1, -1, -1, 1, 1, 1, 1, 1, 1, 1, 1, -1, -1, 1, -1, 1, 1, -1, 1, -1, 1, -1, -1, -1, -1, 1, 1, 1, 1, 1, 1, 1, 1, -1, -1, -1, 1, 1, -1, 1, -1, 1, 1, -1, 1, -1, -1, 1, 1, 1, 1, 1, 1, -1, -1, -1, 1, -1, 1, 1, -1, 1, 1, 1, -1, -1, -1, -1, 1, 1, 1, 1, -1, -1, 1, -1, -1, -1, 1, -1, 1, 1, 1, -1, 1, 1, -1, -1, -1, -1, -1, 1, 1, -1, 1, -1, 1, -1, -1, 1, -1, 1, 1, 1, -1, 1, 1, 1, -1, -1, 1, -1, -1, 1, 1, 1, -1, 1, -1, -1, 1, -1, 1, 1, 1, 1, 1, 1, -1, 1, 1, -1, 1, -1, 1, 1, 1, 1, -1, 1, 1, 1, -1, -1, 1, 1, 1, 1, 1, -1, -1, 1, -1, -1, -1, 1, 1, 1, 1, 1, -1, -1, -1, -1, 1, -1, 1, 1, 1, 1, 1, -1, 1, -1, -1, 1, -1, 1, 1, 1, -1, -1, 1, -1, -1, -1, 1, 1, 1, 1, 1, 1, 1, -1, 1, -1, -1, 1, -1, -1, 1, 1, -1, 1, 1, 1, -1, 1, -1, 1, -1, -1, 1, -1, -1, -1, 1, -1, -1, 1, 1, 1, 1, 1, -1, -1, 1, -1, 1, -1, 1, 1, 1, 1, 1, -1, 1, -1, -1, 1, -1, 1, 1, 1, -1, 1, -1, -1, -1, -1, -1, -1, -1, 1, 1, -1, 1, -1, -1, -1, -1, -1, 1, -1, 1, 1, 1, -1, 1, 1, 1, -1, -1, -1, 1, 1, -1, -1, 1, 1, 1, -1, 1, -1, 1, -1, 1, 1, 1, 1, 1, 1, -1, 1, -1, -1, -1, 1, -1, 1, 1, -1, 1, 1, -1, 1, -1, 1, 1, 1, -1, 1, -1, 1, -1, 1, -1, 1, 1, 1, 1, 1, 1, 1, 1, -1, 1, -1, 1, 1, -1, -1, 1, 1, 1, -1, -1, 1, -1, 1, 1, 1, 1, 1, 1, 1, 1, -1, -1, -1, -1, 1, 1, 1, 1, 1, 1, 1, -1, 1, -1, 1, -1, -1, 1, 1, 1, 1, -1, -1, -1, -1, 1, 1, 1, 1, 1, 1, 1, -1, -1, 1, -1, 1, 1, 1, 1, 1, 1, 1, 1, -1, -1, -1, 1, 1, 1, 1, 1, 1, 1, -1, -1, -1, -1, -1, 1, 1, 1, 1, 1, 1, -1, -1, -1, -1, -1, -1, 1, 1, 1, 1, 1, 1, -1, -1, 1, 1, 1, -1, 1, 1, 1, 1, -1, -1, 1, -1, 1, 1, 1, 1, 1, 1, 1, -1, -1, -1, -1, 1, 1, 1, 1, -1, -1, 1, -1, -1, -1, -1, -1, 1, 1, 1, 1, -1, 1, -1, 1, 1, -1, 1, 1, 1, 1, 1, 1, 1, 1, -1, -1, -1, -1, 1, -1, -1, 1, 1, 1, -1, 1, 1, 1, -1, 1, -1, -1, 1, -1, 1, 1, -1, -1, -1, -1, 1, -1, -1, 1, 1, 1, 1, -1, 1, -1, -1, 1, -1, -1, 1, 1, -1, 1, -1, -1, -1, -1, -1, -1, -1, -1, 1, -1, 1, -1, -1, 1, -1, 1, -1, -1, -1, -1, -1, 1, -1, -1, 1, 1, -1, -1, -1, 1, 1, -1, 1, -1, -1, 1, -1, 1, -1, -1, 1, -1, 1, 1, -1, 1, -1, 1, -1, -1, -1, 1, -1, -1, 1, -1, -1, 1, -1, -1, 1, -1, 1, -1, -1, 1, -1, 1, -1, 1, -1, 1, -1, 1, -1, 1, -1, -1, 1, 1, -1, -1, -1, -1, 1, -1, -1, 1, -1, 1, 1, -1, -1, -1, -1, 1, -1, -1, 1, -1, 1, 1, -1, -1, -1, -1, 1, -1, -1, 1, -1, 1, 1, -1, -1, -1, -1, 1, -1, -1, -1, -1, 1, 1, 1, -1, -1, 1, 1, -1, -1, 1, -1, 1, 1, 1, -1, -1, 1, -1, 1, -1, 1, -1, 1, 1, -1, 1, -1, 1, -1, 1, -1, 1, -1, 1, 1, 1, 1, -1, -1, -1, 1, -1, -1, -1, -1, 1, 1, 1, -1, -1, 1, -1, -1, -1, -1, 1, 1, 1, -1, -1, 1, -1, -1, -1, -1, -1, 1, 1, 1, -1, -1, 1, -1, 1, -1, -1, 1, 1, 1, 1, -1, -1, 1, 1, 1, -1, -1, 1, 1, -1, 1, -1, -1, 1, -1, 1, -1, -1, 1, -1, 1, 1, -1, -1, -1, -1, 1, -1, -1, -1, -1, 1, -1, 1, -1, 1, -1, 1, -1, -1, 1, 1, 1, -1, -1, -1, 1, -1, 1, -1, 1, -1, -1, 1, -1, 1, 1, 1, -1, 1, 1, -1, -1, -1, 1, -1, -1, 1, 1, -1, 1, -1, 1, -1, 1, 1, -1, 1, 1, -1, 1, 1, -1, -1, 1, -1, 1, 1, -1, 1, 1, 1, 1, -1, -1, -1, 1, 1, 1, -1, 1
BQP_DATA, 2897, 13399, -6300.000000, -7842.000000, -18066.000000, -19608.000000, 8192.026200, 7715, 1855
